002 002 002 001 002 002 001 001 002 003 002 004 005 007 005 010 008 017 013 007 007 012 010 013 015 010 012 018 014 010 015
001 001 001 002 001 001 001 002 001 004 002 003 004 004 006 008 012 010 015 005 009 012 010 010 014 012 018 013 013 013 012
000 001 001 002 003 001 001 003 003 005 004 002 005 005 007 007 007 011 010 010 011 010 008 011 010 009 016 013 012 018 013
000 001 001 002 002 003 002 004 002 006 009 004 005 004 005 006 006 011 008 007 006 006 008 008 012 012 013 010 012 011 012
000 001 001 001 002 002 002 001 004 009 006 007 006 004 006 005 005 006 007 007 006 012 007 008 008 006 008 009 014 014 010
000 001 001 001 002 001 002 002 003 007 008 006 006 006 004 004 005 007 006 006 007 006 005 006 006 007 012 009 010 012 006
001 001 001 002 002 001 002 004 004 005 003 004 004 006 006 004 004 007 005 006 007 005 008 005 005 006 007 009 010 009 009
001 001 001 001 001 001 001 002 004 004 004 004 004 005 005 005 003 003 004 006 008 005 005 006 006 008 013 006 015 009 007
001 001 001 001 000 001 001 001 006 005 003 002 002 001 003 005 002 002 003 006 009 013 008 007 009 008 007 004 007 003 006
001 001 002 001 000 001 001 003 004 002 005 003 002 001 001 003 003 004 007 007 013 016 014 010 007 008 005 003 005 002 002
002 002 003 001 001 002 004 003 002 001 003 003 002 002 002 002 002 005 008 010 015 022 018 012 012 010 003 003 002 002 002
001 001 001 000 001 001 003 004 000 001 002 002 003 003 002 003 003 008 015 018 039 025 016 011 008 005 003 001 001 002 002
001 001 001 001 000 001 002 001 000 001 002 004 003 002 003 004 004 014 021 028 020 022 015 010 008 006 004 002 004 003 003
001 001 000 000 000 001 001 001 000 000 002 004 003 006 004 003 005 018 019 026 014 011 017 012 019 008 003 002 003 003 003
001 000 001 001 002 000 000 000 000 001 002 004 005 006 011 005 006 017 005 013 012 005 017 015 021 008 005 004 005 004 004
002 001 000 002 002 002 001 000 001 001 003 004 003 005 013 011 007 015 009 023 010 007 026 018 015 008 007 004 004 002 001
002 002 002 001 001 001 000 000 001 001 001 003 002 004 008 015 013 011 011 021 012 011 015 028 018 011 005 004 004 001 000
005 003 002 002 001 000 000 000 000 000 000 000 001 002 006 013 022 011 021 024 011 008 021 029 023 012 004 004 002 001 000
003 002 001 001 000 000 001 001 000 000 000 001 001 001 005 006 012 009 011 009 006 003 007 023 011 006 003 002 001 001 000
002 001 000 000 001 000 002 002 001 000 000 001 002 001 003 001 000 001 002 002 003 002 005 011 005 004 002 003 001 000 000
000 001 000 000 001 000 002 003 002 000 001 001 001 001 001 001 000 000 000 002 001 002 003 006 003 003 002 002 001 -99 -99
000 000 000 000 001 001 002 004 002 001 001 002 001 000 001 000 000 000 000 001 001 003 003 005 002 002 002 002 001 -99 -99
000 000 000 000 001 002 004 005 002 001 001 002 000 000 000 000 000 000 000 000 001 001 002 004 002 002 002 -99 -99 -99 -99
000 000 000 000 001 000 004 005 001 001 001 002 001 001 001 000 000 000 000 000 001 000 001 003 002 -99 -99 -99 -99 -99 -99
000 000 000 000 000 000 000 002 000 000 001 001 000 000 000 000 000 000 000 000 001 000 000 -99 -99 -99 -99 -99 -99 -99 -99
000 000 000 000 000 000 000 000 000 000 001 001 001 000 000 000 000 000 001 003 001 000 000 -99 -99 -99 -99 -99 -99 002 001
000 000 000 000 000 000 000 000 000 000 000 000 000 000 000 000 000 001 002 006 005 001 000 -99 -99 -99 -99 -99 004 003 001
000 000 000 000 000 000 000 000 000 000 000 000 000 000 001 001 003 003 003 005 004 001 000 002 002 -99 007 003 002 004 002
000 000 000 000 000 000 000 000 000 000 000 000 000 001 000 001 001 005 003 004 003 002 010 008 007 008 009 001 002 004 001
000 000 000 000 000 000 000 000 000 000 000 000 000 000 000 001 001 007 005 003 003 005 010 012 008 007 008 003 002 004 001
000 000 000 000 000 000 000 000 000 -99 -99 000 000 000 000 002 001 005 007 003 006 010 011 015 006 007 006 004 001 -99 001
000 000 000 000 000 000 000 000 000 000 -99 000 001 001 001 007 002 004 005 009 012 009 010 011 005 006 006 004 001 001 002
000 000 000 000 000 000 000 000 000 -99 -99 -99 001 002 002 002 002 003 003 012 023 010 005 006 005 005 003 005 002 002 001
000 001 001 000 000 000 000 000 000 000 -99 000 000 001 001 003 003 003 003 010 017 009 004 004 006 006 006 014 003 001 001
001 002 001 001 000 000 000 000 000 000 000 000 000 000 001 004 003 005 004 024 011 006 004 003 006 006 008 013 004 001 000
001 003 001 000 000 000 000 003 000 000 000 000 000 000 001 003 003 006 006 012 009 005 004 005 006 003 007 012 005 003 001
002 003 000 000 000 000 001 002 001 000 000 000 000 000 000 000 003 006 008 009 005 003 002 004 003 002 007 013 013 011 003
001 001 000 000 000 000 001 001 001 001 001 001 001 000 000 000 002 005 007 003 002 001 000 001 001 004 009 022 040 012 005
001 001 000 000 000 000 001 001 001 001 001 002 003 001 000 000 000 001 002 002 001 000 000 000 000 001 009 039 044 028 018
000 000 000 002 002 000 001 000 000 000 000 001 001 002 001 000 000 000 000 000 000 000 000 000 000 000 005 018 036 051 032
000 000 000 001 002 001 001 000 000 000 000 000 001 002 002 000 000 000 000 000 000 000 000 000 000 000 001 007 025 031 006
000 000 000 000 001 001 000 000 000 000 001 000 001 004 001 000 000 000 000 000 000 001 001 000 000 000 000 002 006 010 007
000 000 000 000 001 000 000 000 000 001 002 000 001 001 001 000 000 000 000 000 001 002 001 000 000 000 000 000 003 002 003
001 000 001 001 000 001 002 000 001 002 002 000 000 000 000 000 000 000 000 001 002 002 003 002 000 001 000 000 001 001 001
002 000 001 002 002 001 000 000 001 001 000 000 001 000 000 000 000 000 001 004 003 002 003 002 001 000 000 000 000 000 000
002 000 001 002 001 000 000 000 000 000 000 001 001 001 003 003 001 001 015 007 003 001 002 001 000 000 000 000 000 -99 000
000 000 001 000 000 000 000 000 000 000 001 002 002 003 005 004 005 005 010 007 004 001 002 000 000 000 000 000 000 -99 000
001 000 001 000 000 000 000 000 000 000 001 002 003 006 004 006 008 010 015 005 002 001 002 000 000 000 000 000 000 -99 -99
002 001 001 001 000 000 000 000 000 000 001 003 003 004 005 005 007 007 006 004 004 002 001 000 000 000 000 000 000 -99 000
001 001 000 001 000 000 000 000 000 000 001 001 001 004 005 004 008 004 004 003 003 002 001 001 000 000 000 000 000 -99 -99
000 000 000 000 000 000 000 000 000 000 000 000 000 003 002 005 006 004 004 003 003 001 001 000 000 000 000 000 000 -99 -99
000 000 000 000 000 000 000 000 000 000 000 000 000 000 001 003 005 007 016 003 003 001 001 000 000 000 000 -99 -99 -99 -99
000 000 000 000 000 000 000 000 000 000 000 000 000 000 000 001 006 018 012 002 001 001 001 000 001 000 000 -99 -99 -99 -99
000 000 000 000 000 000 000 000 000 000 -99 000 000 000 000 002 004 012 010 006 002 001 001 000 000 000 000 -99 -99 -99 -99
-99 000 000 000 000 000 000 000 000 000 -99 -99 -99 000 000 001 002 004 006 003 003 002 001 000 000 000 -99 -99 -99 -99 -99
